TYPE : Vertex Cover
DIMENSION: 25
EDGE_DATA_SECTION:
0 2
0 8
0 14
0 17
0 18
0 20
1 4
1 5
1 16
1 20
1 23
2 15
2 22
3 10
3 17
3 20
3 21
4 5
4 6
4 21
5 6
5 20
6 11
6 13
6 19
6 22
7 9
8 14
8 23
9 13
9 18
9 19
9 22
10 19
10 23
11 19
12 16
14 17
14 18
15 18
15 20
16 17
18 19
18 20
19 24
21 23
-1
VERTEX_DEGREE:
6.0 5.0 3.0 4.0 4.0 4.0 6.0 1.0 3.0 5.0 3.0 2.0 1.0 2.0 4.0 3.0 3.0 4.0 6.0 6.0 6.0 3.0 3.0 4.0 1.0
VERTEX_COVER:
0 1 2 3 4 6 9 14 16 18 19 20 23
EOF
